1794
145 61
206 42
211 13
346 71
303 54
84 80
253 36
238 79
34 48
53 32
287 34
260 91
196 77
77 69
331 20
211 7
166 25
68 20
68 5
163 27
199 69
9 46
120 29
175 41
337 26
147 39
88 70
310 62
27 37
257 79
168 66
109 77
133 5
21 33
290 52
187 92
172 85
106 54
205 47
41 16
208 22
273 20
136 45
268 62
56 76
266 52
156 2
302 30
152 30
96 91
174 22
204 17
2 98
67 81
15 98
58 88
128 32
190 52
321 16
293 84
221 63
125 51
176 53
120 81
158 19
209 58
130 40
14 26
190 17
116 47
330 70
264 62
132 81
254 46
14 79
337 30
330 73
233 66
123 71
231 20
236 24
70 48
161 34
212 87
329 45
273 73
130 14
260 26
295 35
106 15
